50
150
100
98
97
97
92
92
92
91
88
84
83
82
77
77
76
75
74
73
72
70
70
67
66
65
63
62
62
62
62
58
57
57
54
53
52
52
50
46
45
43
42
41
41
41
40
37
37
36
33
33
